; benchmark generated from python API
(set-info :status unknown)
(declare-datatypes ((RealState 0)) (((RMk1 (rval1 Real)) (RMk2 (rval2 Real)))))
 (assert
 (forall ((|v17:0| Real) )(forall ((|v16:1| Real) )(forall ((|v15:2| Real) )(forall ((|v14:3| Real) )(forall ((|v13:4| Real) )(forall ((|v12:5| Real) )(exists ((|v11:6_st| RealState) (val!8646 Real) )(exists ((|v10:7_st| RealState) (val!8647 Real) )(exists ((|v9:8_st| RealState) (val!8648 Real) )(exists ((|v8:9_st| RealState) (val!8649 Real) )(exists ((|v7:10_st| RealState) (val!8650 Real) )(exists ((|v6:11_st| RealState) (val!8651 Real) )(forall ((|v5:12| Real) )(forall ((|v4:13| Real) )(forall ((|v3:14| Real) )(forall ((|v2:15| Real) )(forall ((|v1:16| Real) )(forall ((|v0:17| Real) )(let ((?x1083 (- 8.0)))
 (let ((?x535 (- 16.0)))
 (let ((?x2290 (* ?x535 |v3:14|)))
 (let ((?x1622 (+ (+ (+ (* 9.0 (rval2 |v9:8_st|)) (* (- 7.0) (rval2 |v9:8_st|))) ?x2290) (* (- 12.0) |v16:1|))))
 (let ((?x1148 (* 4.0 |v2:15|)))
 (let ((?x472 (+ (+ (+ (* (- 19.0) |v3:14|) (* 10.0 (rval2 |v11:6_st|))) (* ?x535 |v13:4|)) ?x1148)))
 (let ((?x1947 (+ (+ (+ (* 16.0 |v16:1|) (* 19.0 |v1:16|)) (* (- 4.0) |v17:0|)) (* (- 19.0) |v14:3|))))
 (let ((?x2149 (- 18.0)))
 (let ((?x2407 (* 18.0 |v0:17|)))
 (let ((?x1185 (+ (+ (+ (* (- 1.0) |v3:14|) (* (- 17.0) (rval2 |v7:10_st|))) ?x2407) (* ?x2149 (rval2 |v8:9_st|)))))
 (let (($x580 (or (or (<= ?x1185 ?x2149) (<= ?x1947 ?x1083)) (and (<= ?x472 20.0) (<= ?x1622 ?x1083)))))
 (let ((?x2751 (rval2 |v6:11_st|)))
 (let ((?x3135 (* 16.0 ?x2751)))
 (let ((?x681 (+ (+ (+ (* 17.0 (rval2 |v11:6_st|)) (* (- 3.0) |v0:17|)) (* 2.0 |v5:12|)) ?x3135)))
 (let ((?x2803 (* ?x2149 |v4:13|)))
 (let ((?x1218 (+ (+ (+ (* 15.0 |v14:3|) (* 2.0 |v16:1|)) (* (- 11.0) (rval2 |v7:10_st|))) ?x2803)))
 (let ((?x295 (- 11.0)))
 (let ((?x372 (rval2 |v8:9_st|)))
 (let ((?x3217 (* 13.0 ?x372)))
 (let ((?x1092 (rval2 |v7:10_st|)))
 (let ((?x3189 (- 12.0)))
 (let ((?x2807 (* ?x3189 ?x1092)))
 (let (($x3287 (<= (+ (+ (+ (* (- 9.0) |v15:2|) (* 5.0 |v17:0|)) ?x2807) ?x3217) ?x295)))
 (let ((?x2092 (- 9.0)))
 (let ((?x162 (* ?x2092 |v5:12|)))
 (let (($x1968 (<= (+ (+ (+ (* 10.0 |v0:17|) (* ?x1083 |v16:1|)) (* 0.0 |v14:3|)) ?x162) 13.0)))
 (let (($x669 (and (and (and $x1968 $x3287) (and (<= ?x1218 4.0) (<= ?x681 11.0))) $x580)))
 (let ((?x2282 (- 2.0)))
 (let ((?x192 (- 10.0)))
 (let ((?x1087 (* ?x192 |v0:17|)))
 (let (($x3476 (<= (+ (+ (+ (* 16.0 |v15:2|) (* 6.0 |v17:0|)) (* 0.0 ?x2751)) ?x1087) ?x2282)))
 (let ((?x65 (* 0.0 |v3:14|)))
 (let ((?x2667 (+ (+ (* (- 14.0) ?x1092) (* 5.0 ?x2751)) (* (- 5.0) (rval2 |v11:6_st|)))))
 (let ((?x1078 (- 6.0)))
 (let ((?x1724 (* 17.0 |v17:0|)))
 (let ((?x2720 (+ (+ (+ (* ?x1078 |v2:15|) (* ?x2092 (rval2 |v9:8_st|))) (* (- 15.0) |v1:16|)) ?x1724)))
 (let ((?x373 (* (- 20.0) |v3:14|)))
 (let ((?x3022 (+ (+ (+ (* ?x295 |v0:17|) (* 7.0 (rval2 |v11:6_st|))) (* ?x192 (rval2 |v11:6_st|))) ?x373)))
 (let ((?x1085 (+ (+ (+ (* ?x1078 |v12:5|) (* 0.0 |v1:16|)) (* 13.0 |v15:2|)) (* (- 7.0) ?x1092))))
 (let ((?x446 (* ?x295 ?x2751)))
 (let ((?x1307 (+ (+ (* (- 19.0) |v4:13|) (* 4.0 |v1:16|)) (* ?x295 |v2:15|))))
 (let ((?x2879 (* 2.0 |v16:1|)))
 (let (($x1220 (<= (+ (+ (+ (* 4.0 |v14:3|) (* 13.0 |v15:2|)) (* 3.0 |v17:0|)) ?x2879) ?x3189)))
 (let (($x2082 (and (and $x1220 (<= (+ ?x1307 ?x446) ?x2282)) (or (<= ?x1085 15.0) (<= ?x3022 6.0)))))
 (let (($x3326 (and (and $x2082 (or (<= ?x2720 ?x1078) (or (<= (+ ?x2667 ?x65) 8.0) $x3476))) $x669)))
 (let ((?x1814 (- 19.0)))
 (let ((?x2061 (* ?x1814 |v5:12|)))
 (let ((?x2141 (+ (+ (+ (* (- 4.0) ?x1092) (* 10.0 (rval2 |v10:7_st|))) (* 13.0 |v15:2|)) ?x2061)))
 (let ((?x823 (+ (+ (+ ?x2407 (* (- 1.0) ?x2751)) (* (- 14.0) |v13:4|)) (* 4.0 |v15:2|))))
 (let ((?x3126 (- 3.0)))
 (let ((?x1754 (+ (+ (+ (* (- 17.0) |v12:5|) (* ?x535 |v13:4|)) (* 20.0 |v5:12|)) (* 13.0 (rval2 |v11:6_st|)))))
 (let ((?x3198 (- 5.0)))
 (let ((?x2749 (* 9.0 ?x1092)))
 (let ((?x1101 (+ (+ (+ (* 11.0 |v12:5|) (* 11.0 ?x372)) (* (- 17.0) ?x1092)) ?x2749)))
 (let (($x412 (or (and (<= ?x1101 ?x3198) (<= ?x1754 ?x3126)) (or (<= ?x823 10.0) (<= ?x2141 ?x2282)))))
 (let ((?x2243 (* 14.0 |v14:3|)))
 (let ((?x1322 (+ (+ (+ (* ?x1078 (rval2 |v11:6_st|)) (* 0.0 |v16:1|)) (* ?x535 |v1:16|)) ?x2243)))
 (let ((?x3384 (rval2 |v10:7_st|)))
 (let ((?x2209 (* 17.0 ?x3384)))
 (let (($x420 (<= (+ (+ (+ (* ?x1083 |v15:2|) (* (- 13.0) |v16:1|)) (* 13.0 |v4:13|)) ?x2209) ?x1814)))
 (let ((?x2691 (+ (+ (+ (* ?x3198 |v14:3|) (* (- 13.0) |v4:13|)) (* ?x1083 |v17:0|)) (* (- 4.0) ?x2751))))
 (let ((?x1849 (- 4.0)))
 (let ((?x3013 (* 13.0 |v1:16|)))
 (let (($x868 (<= (+ (+ (+ (* (- 15.0) |v2:15|) (* 4.0 |v0:17|)) (* ?x3189 |v14:3|)) ?x3013) ?x1849)))
 (let ((?x1954 (+ (+ (+ (* ?x3126 |v17:0|) (* 14.0 ?x372)) (* 7.0 |v1:16|)) (* 12.0 (rval2 |v9:8_st|)))))
 (let ((?x405 (* ?x192 |v2:15|)))
 (let (($x2434 (<= (+ (+ (+ (* (- 14.0) (rval2 |v9:8_st|)) ?x2807) (* 18.0 |v14:3|)) ?x405) 16.0)))
 (let (($x771 (<= (+ (+ (+ ?x446 (* 6.0 |v3:14|)) (* ?x295 ?x3384)) (* ?x2149 |v5:12|)) ?x535)))
 (let ((?x2302 (- 13.0)))
 (let ((?x2441 (* ?x2302 |v5:12|)))
 (let (($x177 (<= (+ (+ (+ (* ?x295 |v3:14|) (* ?x1849 |v16:1|)) (* 3.0 ?x3384)) ?x2441) 17.0)))
 (let ((?x1004 (- 15.0)))
 (let ((?x3174 (* 20.0 |v4:13|)))
 (let ((?x820 (+ (+ (+ (* ?x3189 (rval2 |v9:8_st|)) (* 16.0 ?x1092)) (* ?x2092 ?x3384)) ?x3174)))
 (let (($x2689 (and (<= ?x820 ?x1004) (and (and $x177 $x771) (or $x2434 (<= ?x1954 9.0))))))
 (let (($x1383 (or $x2689 (or (or (or $x868 (<= ?x2691 ?x295)) (and $x420 (<= ?x1322 3.0))) $x412))))
 (let ((?x3423 (* 12.0 |v17:0|)))
 (let ((?x187 (+ (+ (+ (* (- 1.0) ?x3384) (* 0.0 |v17:0|)) (* 13.0 |v12:5|)) ?x3423)))
 (let ((?x3327 (+ (+ (+ (* 3.0 |v5:12|) (* 14.0 (rval2 |v9:8_st|))) (* ?x3189 |v13:4|)) (* (- 17.0) (rval2 |v9:8_st|)))))
 (let ((?x2431 (- 14.0)))
 (let ((?x1170 (+ (+ (+ (* 16.0 ?x372) (* 10.0 ?x2751)) (* ?x3126 |v1:16|)) (* (- 7.0) |v16:1|))))
 (let (($x2980 (and (<= (+ (+ (+ ?x3013 (* 0.0 |v14:3|)) ?x1087) (* ?x2431 |v3:14|)) 14.0) (<= ?x1170 ?x2431))))
 (let ((?x619 (* ?x1083 |v1:16|)))
 (let (($x3438 (<= (+ (+ (+ (* 19.0 ?x372) (* ?x2282 |v3:14|)) (* ?x2092 |v16:1|)) ?x619) 4.0)))
 (let ((?x1705 (* 3.0 |v0:17|)))
 (let (($x1680 (<= (+ (+ (+ (* 13.0 ?x3384) (* (- 1.0) |v14:3|)) (* ?x1849 ?x1092)) ?x1705) ?x3189)))
 (let (($x3335 (<= (+ (+ (+ (* 14.0 |v2:15|) ?x2879) (* 5.0 |v16:1|)) (* 14.0 |v17:0|)) 7.0)))
 (let ((?x2470 (* 9.0 |v2:15|)))
 (let ((?x1394 (+ (+ (+ (* 19.0 |v2:15|) (* ?x1078 (rval2 |v11:6_st|))) (* ?x1814 |v12:5|)) ?x2470)))
 (let (($x324 (or (and (and (<= ?x1394 18.0) $x3335) (and $x1680 $x3438)) (or $x2980 (and (<= ?x3327 3.0) (<= ?x187 ?x2282))))))
 (let ((?x1314 (+ (+ (+ (* 3.0 |v16:1|) (* 3.0 |v5:12|)) (* (- 17.0) |v3:14|)) (* ?x535 ?x2751))))
 (let ((?x802 (* 19.0 |v0:17|)))
 (let ((?x153 (+ (+ (+ (* 18.0 |v13:4|) (* ?x2149 |v15:2|)) (* 14.0 (rval2 |v11:6_st|))) ?x802)))
 (let ((?x2786 (- 1.0)))
 (let ((?x1505 (* ?x2786 |v5:12|)))
 (let (($x616 (<= (+ (+ (+ ?x2749 (* ?x535 (rval2 |v9:8_st|))) (* ?x2431 (rval2 |v9:8_st|))) ?x1505) ?x3198)))
 (let ((?x2572 (* 19.0 ?x372)))
 (let (($x2218 (<= (+ (+ (+ (* 11.0 |v0:17|) (* ?x2786 ?x2751)) (* (- 17.0) |v13:4|)) ?x2572) ?x1078)))
 (let ((?x170 (+ (+ (* ?x3126 (rval2 |v9:8_st|)) (* 4.0 ?x372)) (* 19.0 (rval2 |v9:8_st|)))))
 (let ((?x1363 (+ (+ (+ (* ?x2149 |v1:16|) (* 19.0 ?x3384)) (* ?x1083 |v12:5|)) (* ?x3189 |v12:5|))))
 (let ((?x1100 (+ (+ (+ (* ?x192 |v3:14|) (* 6.0 |v17:0|)) (* ?x3198 |v5:12|)) (* ?x192 ?x372))))
 (let ((?x927 (* 4.0 |v17:0|)))
 (let ((?x3079 (+ (+ (+ (* 13.0 |v3:14|) (* (- 7.0) |v5:12|)) (* (- 17.0) ?x372)) ?x927)))
 (let (($x1366 (or (and (<= ?x3079 19.0) (<= ?x1100 13.0)) (or (<= ?x1363 ?x192) (<= (+ ?x170 (* ?x3126 ?x372)) ?x2786)))))
 (let (($x2208 (and $x1366 (and (or $x2218 $x616) (and (<= ?x153 ?x1083) (<= ?x1314 12.0))))))
 (let (($x2392 (<= (+ (+ (+ (* ?x2282 (rval2 |v9:8_st|)) (* ?x535 |v17:0|)) (* ?x2149 ?x1092)) ?x802) 15.0)))
 (let ((?x865 (* 12.0 |v13:4|)))
 (let ((?x1324 (* 6.0 |v12:5|)))
 (let (($x1899 (<= (+ (+ (+ (* (- 7.0) |v0:17|) (* 4.0 ?x1092)) (* ?x295 ?x1092)) ?x1324) 2.0)))
 (let (($x1805 (or $x1899 (<= (+ (+ (+ (* 3.0 ?x3384) (* 20.0 |v1:16|)) ?x865) ?x865) 5.0))))
 (let (($x2164 (<= (+ (+ (+ (* 5.0 |v12:5|) |v2:15|) (* 18.0 |v16:1|)) (* ?x2302 ?x2751)) 8.0)))
 (let (($x400 (<= (+ (+ (+ |v0:17| (* 14.0 |v13:4|)) (* ?x2302 (rval2 |v9:8_st|))) |v13:4|) ?x1849)))
 (let ((?x3433 (* 18.0 ?x372)))
 (let ((?x1544 (+ (+ (+ (* 7.0 |v1:16|) (* 20.0 (rval2 |v11:6_st|))) (* 8.0 ?x372)) ?x3433)))
 (let ((?x408 (* ?x1083 |v15:2|)))
 (let (($x2217 (<= (+ (+ (+ (* 11.0 |v14:3|) (* ?x3126 |v17:0|)) (* 4.0 |v13:4|)) ?x408) 9.0)))
 (let ((?x2380 (* 10.0 |v4:13|)))
 (let (($x2195 (<= (+ (+ (+ (* ?x2149 |v5:12|) (* ?x2149 ?x2751)) (* ?x2092 |v3:14|)) ?x2380) ?x535)))
 (let (($x1897 (<= (+ (+ (+ ?x372 (* 5.0 |v13:4|)) (* ?x3189 ?x3384)) (* 15.0 |v14:3|)) ?x3198)))
 (let (($x1675 (and (and (and $x1897 $x2195) (and $x2217 (<= ?x1544 ?x2302))) (or (and $x400 $x2164) $x1805))))
 (let (($x785 (not (= |v6:11_st| (RMk1 val!8651)))))
 (let (($x1017 (not (= |v7:10_st| (RMk1 val!8650)))))
 (let (($x2912 (not (= |v8:9_st| (RMk1 val!8649)))))
 (let (($x2702 (not (= |v9:8_st| (RMk1 val!8648)))))
 (let (($x1978 (not (= |v10:7_st| (RMk1 val!8647)))))
 (let (($x891 (not (= |v11:6_st| (RMk1 val!8646)))))
 (and $x891 $x1978 $x2702 $x2912 $x1017 $x785 (or (or (and $x1675 $x2392) (and $x2208 $x324)) (or $x1383 $x3326))))))))))))))))))))))))))))))))))))))))))))))))))))))))))))))))))))))))))))))))))))))))))))))))))))))))))))))))))))))))))))))))))
 )
 )
 )
 )
 )
 )
 )
 )
 )
 )
 )
 )
 )
 )
 )
 )
 )
 )
(check-sat)
